objective value:                                    0
z[14]                                               1 	(obj:0)
r[3,0,7]                             28.3062098278213 	(obj:0)
r[3,0,8]                             22.1973568690548 	(obj:0)
r[3,0,9]                               17.25255364269 	(obj:0)
r[3,0,10]                            13.3098035194223 	(obj:0)
r[4,0,0]                                           74 	(obj:0)
r[4,0,1]                                     60.37172 	(obj:0)
r[4,0,2]                                 47.099138108 	(obj:0)
r[4,0,3]                             34.1729706033812 	(obj:0)
r[4,0,4]                             21.5841760706329 	(obj:0)
r[4,0,5]                             21.0208290751894 	(obj:0)
r[4,0,6]                              20.472185436327 	(obj:0)
r[4,0,7]                             15.8707879022925 	(obj:0)
r[4,0,8]                             12.2179043353768 	(obj:0)
r[4,0,9]                             9.35252166346754 	(obj:0)
r[4,0,10]                            7.12676014255268 	(obj:0)
r[5,0,0]                                           74 	(obj:0)
r[5,0,1]                                     60.37172 	(obj:0)
r[5,0,2]                                 47.099138108 	(obj:0)
r[5,0,3]                             34.1729706033812 	(obj:0)
r[5,0,4]                             21.5841760706329 	(obj:0)
r[5,0,5]                             21.0208290751894 	(obj:0)
r[5,0,6]                              20.472185436327 	(obj:0)
r[5,0,7]                             15.8707879022925 	(obj:0)
r[5,0,8]                             12.2179043353768 	(obj:0)
r[5,0,9]                             9.35252166346753 	(obj:0)
r[5,0,10]                            7.12676014255268 	(obj:0)
r[6,0,0]                                           74 	(obj:0)
r[6,0,1]                                     60.37172 	(obj:0)
r[6,0,2]                                 47.099138108 	(obj:0)
r[6,0,3]                             34.1729706033812 	(obj:0)
r[6,0,4]                             21.5841760706329 	(obj:0)
r[6,0,5]                             21.0208290751894 	(obj:0)
r[6,0,6]                             16.3095075686362 	(obj:0)
r[6,0,7]                             12.5641170210471 	(obj:0)
r[6,0,8]                             9.62276580237475 	(obj:0)
r[6,0,9]                             7.33584875629689 	(obj:0)
r[6,0,10]                            5.57199423563764 	(obj:0)
r[7,0,0]                                           74 	(obj:0)
r[7,0,1]                                     60.37172 	(obj:0)
r[7,0,2]                                 47.099138108 	(obj:0)
r[7,0,3]                             34.1729706033812 	(obj:0)
r[7,0,4]                             21.5841760706329 	(obj:0)
r[7,0,5]                             21.0208290751894 	(obj:0)
r[7,0,6]                             16.3095075686362 	(obj:0)
r[7,0,7]                             12.5641170210471 	(obj:0)
r[7,0,8]                             9.62276580237475 	(obj:0)
r[7,0,9]                             7.33584875629689 	(obj:0)
r[7,0,10]                            5.57199423563763 	(obj:0)
r[8,0,0]                                           74 	(obj:0)
r[8,0,1]                                     60.37172 	(obj:0)
r[8,0,2]                                 47.099138108 	(obj:0)
r[8,0,3]                             34.1729706033812 	(obj:0)
r[8,0,4]                             33.2810560706329 	(obj:0)
r[8,0,5]                             26.2821365095315 	(obj:0)
r[8,0,6]                             20.5501289445756 	(obj:0)
r[8,0,7]                             15.9330747246054 	(obj:0)
r[8,0,8]                             12.2670310071128 	(obj:0)
r[8,0,9]                             11.9468614978272 	(obj:0)
r[8,0,10]                            9.14115206626664 	(obj:0)
r[9,0,0]                                           74 	(obj:0)
r[9,0,1]                                     60.37172 	(obj:0)
r[9,0,2]                                 47.099138108 	(obj:0)
r[9,0,3]                             34.1729706033812 	(obj:0)
r[9,0,4]                             21.5841760706329 	(obj:0)
r[9,0,5]                             16.7606777467988 	(obj:0)
r[9,0,6]                              12.920613863677 	(obj:0)
r[9,0,7]                             9.90132920507969 	(obj:0)
r[9,0,8]                             7.55155523310544 	(obj:0)
r[9,0,9]                             5.73782781069024 	(obj:0)
r[9,0,10]                            4.34695960557971 	(obj:0)
r[10,0,0]                                          74 	(obj:0)
r[10,0,1]                                     72.0686 	(obj:0)
r[10,0,2]                                 70.18760954 	(obj:0)
r[10,0,3]                             68.355712931006 	(obj:0)
r[10,0,4]                            66.5716288235067 	(obj:0)
r[10,0,5]                            54.7875958789261 	(obj:0)
r[10,0,6]                            44.4845719274724 	(obj:0)
r[10,0,7]                            43.3235246001654 	(obj:0)
r[10,0,8]                            42.1927806081011 	(obj:0)
r[10,0,9]                            33.7222288846421 	(obj:0)
r[10,0,10]                           26.6468070856316 	(obj:0)
r[11,0,0]                                          74 	(obj:0)
r[11,0,1]                                    60.37172 	(obj:0)
r[11,0,2]                                47.099138108 	(obj:0)
r[11,0,3]                            34.1729706033812 	(obj:0)
r[11,0,4]                            21.5841760706329 	(obj:0)
r[11,0,5]                            9.32394907518943 	(obj:0)
r[11,0,6]                            7.10466612156049 	(obj:0)
r[11,0,7]                            5.39438816264662 	(obj:0)
r[11,0,8]                            5.25359463160154 	(obj:0)
r[11,0,9]                            5.11647581171674 	(obj:0)
r[11,0,10]                           3.87230878071808 	(obj:0)
r[12,0,0]                                          74 	(obj:0)
r[12,0,1]                                    60.37172 	(obj:0)
r[12,0,2]                                47.099138108 	(obj:0)
r[12,0,3]                            34.1729706033812 	(obj:0)
r[12,0,4]                            21.5841760706329 	(obj:0)
r[12,0,5]                            9.32394907518943 	(obj:0)
r[12,0,6]                              6.467298407249 	(obj:0)
r[12,0,7]                             6.2985019188198 	(obj:0)
r[12,0,8]                             6.1341110187386 	(obj:0)
r[12,0,9]                            4.65017005854967 	(obj:0)
r[12,0,10]                           3.51672101475787 	(obj:0)
r[13,0,0]                                          74 	(obj:0)
r[13,0,1]                                     72.0686 	(obj:0)
r[13,0,2]                                 70.18760954 	(obj:0)
r[13,0,3]                             68.355712931006 	(obj:0)
r[13,0,4]                            56.3652425614332 	(obj:0)
r[13,0,5]                            45.8515396542665 	(obj:0)
r[13,0,6]                            36.8200419558503 	(obj:0)
r[13,0,7]                            29.2183230622098 	(obj:0)
r[13,0,8]                            24.0884545797378 	(obj:0)
r[13,0,9]                            23.4597459152066 	(obj:0)
r[13,0,10]                           18.2678004229261 	(obj:0)
r[14,0,0]                                          74 	(obj:0)
r[14,0,1]                                    60.37172 	(obj:0)
r[14,0,2]                                47.099138108 	(obj:0)
r[14,0,3]                            34.1729706033812 	(obj:0)
r[14,0,4]                            21.5841760706329 	(obj:0)
r[14,0,5]                            9.32394907518943 	(obj:0)
r[15,0,0]                                          74 	(obj:0)
r[15,0,1]                                    60.37172 	(obj:0)
r[15,0,2]                                47.099138108 	(obj:0)
r[15,0,3]                            34.1729706033812 	(obj:0)
r[15,0,4]                            21.5841760706329 	(obj:0)
r[15,0,5]                            9.32394907518943 	(obj:0)
r[15,0,6]                            7.10466612156049 	(obj:0)
r[15,0,7]                            5.39438816264662 	(obj:0)
r[16,0,0]                                          74 	(obj:0)
r[16,0,1]                                    60.37172 	(obj:0)
r[16,0,2]                                47.099138108 	(obj:0)
r[16,0,3]                            34.1729706033812 	(obj:0)
r[16,0,4]                            21.5841760706329 	(obj:0)
r[16,0,5]                            9.32394907518943 	(obj:0)
r[16,0,6]                           0.539834126091528 	(obj:0)
r[17,0,0]                                          74 	(obj:0)
r[17,0,1]                                     72.0686 	(obj:0)
r[17,0,2]                            59.6624776427723 	(obj:0)
r[17,0,3]                            48.7211722736469 	(obj:0)
r[17,0,4]                            47.4495496773047 	(obj:0)
r[17,0,5]                             46.211116430727 	(obj:0)
r[17,0,6]                             45.005006291885 	(obj:0)
r[17,0,7]                            36.1011416710066 	(obj:0)
r[17,0,8]                            28.6198771952624 	(obj:0)
r[17,0,9]                            22.4533963506354 	(obj:0)
r[17,0,10]                            17.458185615086 	(obj:0)
r[18,0,0]                                          74 	(obj:0)
r[18,0,1]                                    60.37172 	(obj:0)
r[18,0,2]                                47.099138108 	(obj:0)
r[18,0,3]                            34.1729706033812 	(obj:0)
r[18,0,4]                            21.5841760706329 	(obj:0)
r[18,0,5]                            9.32394907518943 	(obj:0)
r[18,0,6]                            7.10466612156049 	(obj:0)
r[18,0,7]                            6.91923433578776 	(obj:0)
r[18,0,8]                             6.7386423196237 	(obj:0)
r[19,0,0]                                          74 	(obj:0)
r[19,0,1]                                    60.37172 	(obj:0)
r[19,0,2]                                47.099138108 	(obj:0)
r[19,0,3]                            34.1729706033812 	(obj:0)
r[19,0,4]                            21.5841760706329 	(obj:0)
r[19,0,5]                            9.32394907518943 	(obj:0)
r[19,0,6]                            7.10466612156049 	(obj:0)
r[19,0,7]                            5.39438816264662 	(obj:0)
r[19,0,8]                            5.25359463160154 	(obj:0)
r[19,0,9]                            5.11647581171674 	(obj:0)
y[0,1]                              0.140683342267239 	(obj:0)
y[0,3]                               1.90153245953774 	(obj:0)
y[0,4]                               1.23268580495044 	(obj:0)
y[0,5]                              0.709559206959605 	(obj:0)
y[0,7]                               1.20616229770183 	(obj:0)
y[0,8]                              0.970337378545366 	(obj:0)
y[0,9]                              0.110880548574711 	(obj:0)
y[0,10]                             0.730033358091467 	(obj:0)
y[1,3]                              0.442834269946045 	(obj:0)
y[1,4]                               1.94778681159942 	(obj:0)
y[1,7]                             0.0981974634526072 	(obj:0)
y[1,8]                               1.52913794932281 	(obj:0)
y[1,9]                               1.25559106282789 	(obj:0)
y[1,10]                               1.0132113529747 	(obj:0)
y[2,8]                               1.85261488378333 	(obj:0)
y[2,9]                               1.55416658907915 	(obj:0)
y[2,10]                              1.27821584017666 	(obj:0)
y[3,2]                               0.32937504909787 	(obj:0)
y[3,3]                               2.34223356504997 	(obj:0)
y[3,4]                               2.03395847759268 	(obj:0)
y[3,7]                               1.65778426892305 	(obj:0)
y[3,8]                               1.37271494945307 	(obj:0)
y[3,9]                               1.11591314214786 	(obj:0)
y[3,10]                             0.892755233433926 	(obj:0)
y[4,7]                               1.03964046373884 	(obj:0)
y[4,8]                              0.827877301294942 	(obj:0)
y[4,9]                              0.650944623915128 	(obj:0)
y[4,10]                             0.506559485045591 	(obj:0)
y[5,7]                               1.03964046373884 	(obj:0)
y[5,8]                              0.827877301294942 	(obj:0)
y[5,9]                              0.650944623915128 	(obj:0)
y[5,10]                             0.506559485045591 	(obj:0)
y[6,6]                                1.0640792095324 	(obj:0)
y[6,7]                              0.848597239276018 	(obj:0)
y[6,8]                              0.668054132009964 	(obj:0)
y[6,9]                              0.520389278792404 	(obj:0)
y[6,10]                             0.401939894713677 	(obj:0)
y[7,6]                                1.0640792095324 	(obj:0)
y[7,7]                              0.848597239276019 	(obj:0)
y[7,8]                              0.668054132009964 	(obj:0)
y[7,9]                              0.520389278792404 	(obj:0)
y[7,10]                             0.401939894713677 	(obj:0)
y[8,5]                               1.56704601167124 	(obj:0)
y[8,6]                               1.28988849745838 	(obj:0)
y[8,7]                               1.04312266219752 	(obj:0)
y[8,8]                              0.830825784044078 	(obj:0)
y[8,10]                             0.637499066070355 	(obj:0)
y[9,5]                               1.08899573834117 	(obj:0)
y[9,6]                              0.869787881884041 	(obj:0)
y[9,7]                              0.685597299784076 	(obj:0)
y[9,8]                              0.534598486636419 	(obj:0)
y[9,9]                              0.413249445508985 	(obj:0)
y[9,10]                             0.317257387334232 	(obj:0)
y[10,5]                              2.56812715549263 	(obj:0)
y[10,6]                              2.26816658972742 	(obj:0)
y[10,9]                               1.8837730443731 	(obj:0)
y[10,10]                             1.58365839087969 	(obj:0)
y[11,5]                             0.649129411542476 	(obj:0)
y[11,6]                             0.505094039561987 	(obj:0)
y[11,7]                             0.389786854074934 	(obj:0)
y[11,10]                            0.283902610509422 	(obj:0)
y[12,4]                              1.34219148752905 	(obj:0)
y[12,5]                             0.649129411542476 	(obj:0)
y[12,9]                               0.3384050773517 	(obj:0)
y[12,10]                            0.258711555537744 	(obj:0)
y[13,4]                              2.60899444327033 	(obj:0)
y[13,5]                               2.3114954182805 	(obj:0)
y[13,6]                               2.0027537099795 	(obj:0)
y[13,7]                              1.69752448839286 	(obj:0)
y[13,8]                              1.11637787590703 	(obj:0)
y[13,10]                             1.17066618708939 	(obj:0)
y[15,1]                              2.70732916443319 	(obj:0)
y[15,3]                              1.90153245953774 	(obj:0)
y[15,4]                              1.34219148752905 	(obj:0)
y[15,5]                             0.649129411542476 	(obj:0)
y[15,6]                             0.505094039561987 	(obj:0)
y[15,7]                             0.389786854074934 	(obj:0)
y[16,1]                              2.70732916443319 	(obj:0)
y[16,2]                              2.35005052068008 	(obj:0)
y[16,3]                              1.90153245953774 	(obj:0)
y[16,4]                              1.34219148752905 	(obj:0)
y[16,5]                             0.649129411542476 	(obj:0)
y[16,6]                            0.0408687436379249 	(obj:0)
y[17,2]                               2.6904733888619 	(obj:0)
y[17,3]                              2.39880232685302 	(obj:0)
y[17,7]                              1.97577555129352 	(obj:0)
y[17,8]                              1.67152982569809 	(obj:0)
y[17,9]                              1.38535328472154 	(obj:0)
y[17,10]                             1.12709025838389 	(obj:0)
y[18,1]                              2.70732916443319 	(obj:0)
y[18,2]                              2.35005052068008 	(obj:0)
y[18,3]                              1.90153245953774 	(obj:0)
y[18,5]                             0.649129411542476 	(obj:0)
y[18,6]                             0.505094039561988 	(obj:0)
y[19,1]                              2.70732916443319 	(obj:0)
y[19,2]                              2.35005052068008 	(obj:0)
y[19,5]                             0.649129411542476 	(obj:0)
y[19,6]                             0.505094039561987 	(obj:0)
y[19,7]                             0.389786854074934 	(obj:0)
r[0,0,0]                                           74 	(obj:0)
r[0,0,1]                                     60.37172 	(obj:0)
r[0,0,2]                                 47.099138108 	(obj:0)
r[0,0,3]                             34.1729706033812 	(obj:0)
r[0,0,4]                             28.4587892016668 	(obj:0)
r[0,0,5]                             24.9402191858774 	(obj:0)
r[0,0,6]                              24.289279465126 	(obj:0)
r[0,0,7]                             18.9368223624766 	(obj:0)
r[0,0,8]                             14.6466114739465 	(obj:0)
r[0,0,9]                             13.8305702084522 	(obj:0)
r[0,0,10]                            10.6137018291578 	(obj:0)
r[1,0,0]                                           74 	(obj:0)
r[1,0,1]                                     60.37172 	(obj:0)
r[1,0,2]                                 47.099138108 	(obj:0)
r[1,0,3]                             44.1374829393523 	(obj:0)
r[1,0,4]                             35.3657526276582 	(obj:0)
r[1,0,5]                             34.4427064840764 	(obj:0)
r[1,0,6]                              33.543751844842 	(obj:0)
r[1,0,7]                              32.284111444665 	(obj:0)
r[1,0,8]                             25.4595084782084 	(obj:0)
r[1,0,9]                             19.8831430691445 	(obj:0)
r[1,0,10]                            15.4005102222028 	(obj:0)
r[2,0,0]                                           74 	(obj:0)
r[2,0,1]                                     60.37172 	(obj:0)
r[2,0,2]                                 47.099138108 	(obj:0)
r[2,0,3]                             45.8698506033812 	(obj:0)
r[2,0,4]                              44.672647502633 	(obj:0)
r[2,0,5]                             43.5066914028142 	(obj:0)
r[2,0,6]                             42.3711667572008 	(obj:0)
r[2,0,7]                             41.2652793048378 	(obj:0)
r[2,0,8]                             32.9408260896212 	(obj:0)
r[2,0,9]                             26.0011708322044 	(obj:0)
r[2,0,10]                            20.3221599067128 	(obj:0)
r[3,0,0]                                           74 	(obj:0)
r[3,0,1]                                     60.37172 	(obj:0)
r[3,0,2]                             57.5075029159291 	(obj:0)
r[3,0,3]                             46.8437393833479 	(obj:0)
r[3,0,4]                                37.6642722211 	(obj:0)
r[3,0,5]                             36.6812347161293 	(obj:0)
r[3,0,6]                             35.7238544900383 	(obj:0)
